rectOffsets = 
    [|0,0,3,3|0,0,3,3|0,0,3,4|0,0,4,3|0,0,3,5|0,0,5,3|0,0,3,6|0,0,6,3|0,0,3,7|0,0,7,3|0,0,3,8|0,0,8,3|0,0,3,9|0,0,9,3|0,0,3,10|0,0,10,3|0,0,3,11|0,0,11,3|0,0,3,12|0,0,12,3|0,0,3,14|0,0,14,3|0,0,3,15|0,0,15,3|0,0,3,16|0,0,16,3|0,0,3,24|0,0,24,3|0,0,3,36|0,0,36,3|0,0,4,3|0,0,3,4|0,0,4,11|0,0,11,4|0,0,4,22|0,0,22,4|0,0,5,3|0,0,3,5|0,0,5,4|0,0,4,5|0,0,5,14|0,0,14,5|0,0,5,15|0,0,15,5|0,0,12,36|0,0,36,12|];

shape = array1d(1..46, [{1}, {2}, {3}, {4}, {5}, {6}, {7}, {8}, {9}, {10},
    {11}, {12}, {13}, {14}, {15}, {16}, {17}, {18}, {19}, {20}, {21},
    {22}, {23}, {24}, {25}, {26}, {27}, {28}, {29}, {30}, {31}, {32},
    {33}, {34}, {35}, {36}, {37}, {38}, {39}, {40}, {41}, {42}, {43},
    {44}, {45}, {46}]);

validshapes = array1d(1..23, [{1,2}, {3,4}, {5,6}, {7,8}, {9,10}, {11,12}, {13,14},
    {15,16}, {17,18}, {19,20}, {21,22}, {23,24}, {25,26}, {27,28},
    {29,30}, {31,32}, {33,34}, {35,36}, {37,38}, {39,40}, {41,42},
    {43,44}, {45,46}]);

dx = array1d(1..23, [3, 3, 3, 3, 3, 3, 3, 3, 3, 3, 3, 3, 3, 3, 3, 4, 4, 4,
    5, 5, 5, 5, 12]);

dy = array1d(1..23, [3, 4, 5, 6, 7, 8, 9, 10, 11, 12, 14, 15, 16, 24, 36,
    3, 11, 22, 3, 4, 14, 15, 36]);

w = 36;

n = 23;

o = 46;

